proyfinal/src/viki/013/andrea/andrea-localstore/experimentInOfficeAgust.take6/worker_8/36166ec3-8e0d-4e20-8460-6d1581a90e42.als.cnf.out
Reading from standard input... Use '--help' for help.
============================[ Problem Statistics ]=============================
|                                                                             |
|  Number of variables:         87638                                         |
|  Number of clauses:          161767                                         |
|  Parse time:                   0.03 s                                       |
|                                                                             |
============================[ Search Statistics ]==============================
| Conflicts |          ORIGINAL         |          LEARNT          | Progress |
|           |    Vars  Clauses Literals |    Limit  Clauses Lit/Cl |          |
===============================================================================
|       100 |   65083   115069   286883 |    42191      100     57 | 25.737 % |
|       250 |   60150   115069   286883 |    46411      248     45 | 31.365 % |
|       475 |   60150    99113   247484 |    51052      467     57 | 31.365 % |
|       812 |   60149    99069   247394 |    56157      802     61 | 31.367 % |
|      1318 |   60149    99069   247394 |    61773     1308     50 | 31.367 % |
|      2077 |   60123    98961   247147 |    67950     2066     57 | 31.396 % |
|      3216 |   59856    97939   244749 |    74745     3183     56 | 31.701 % |
|      4924 |   59745    97477   243681 |    82220     4883     57 | 31.828 % |
|      7486 |   59712    97331   243337 |    90442     7442     67 | 31.865 % |
|     11330 |   59408    96182   240651 |    99486    11226     72 | 32.212 % |
|     17096 |   59381    96078   240396 |   109435    16985     76 | 32.243 % |
===============================================================================
restarts              : 63
conflicts             : 17257          (6766 /sec)
decisions             : 82653          (0.00 % random) (32405 /sec)
propagations          : 28396412       (11133014 /sec)
conflict literals     : 1298462        (41.13 % deleted)
Memory used           : 27.49 MB
CPU time              : 2.55065 s

INDETERMINATE
